Version identifier: 22.1.0.0 | 2022-03-09 | 1a383f8ce
CPXPARAM_Read_DataCheck                          1
CPXPARAM_TimeLimit                               600
1 of 1 MIP starts provided solutions.
MIP start 'm1' defined initial solution with objective 87.0000.
Tried aggregator 3 times.
MIP Presolve eliminated 287886 rows and 17547 columns.
MIP Presolve modified 2353 coefficients.
Aggregator did 273800 substitutions.
Reduced MIP has 19790 rows, 278677 columns, and 577649 nonzeros.
Reduced MIP has 278621 binaries, 56 generals, 0 SOSs, and 0 indicators.
Presolve time = 4.70 sec. (4594.25 ticks)
Tried aggregator 1 time.
Detecting symmetries...
Reduced MIP has 19790 rows, 278677 columns, and 577649 nonzeros.
Reduced MIP has 278621 binaries, 56 generals, 0 SOSs, and 0 indicators.
Presolve time = 1.20 sec. (507.97 ticks)
Probing fixed 84 vars, tightened 0 bounds.
Probing changed sense of 23 constraints.
Probing time = 0.55 sec. (68.58 ticks)
Clique table members: 562375.
MIP emphasis: balance optimality and feasibility.
MIP search method: dynamic search.
Parallel mode: deterministic, using up to 8 threads.
Root relaxation solution time = 2.97 sec. (1623.56 ticks)

        Nodes                                         Cuts/
   Node  Left     Objective  IInf  Best Integer    Best Bound    ItCnt     Gap

*     0+    0                           87.0000        0.0000           100.00%
      0     0       56.3676 13985       87.0000       56.3676       34   35.21%
      0     0        cutoff             87.0000                     65    0.00%
Elapsed time = 44.78 sec. (33457.36 ticks, tree = 0.01 MB, solutions = 1)

Gomory fractional cuts applied:  31

Root node processing (before b&c):
  Real time             =   44.81 sec. (33476.40 ticks)
Parallel b&c, 8 threads:
  Real time             =    0.00 sec. (0.00 ticks)
  Sync time (average)   =    0.00 sec.
  Wait time (average)   =    0.00 sec.
                          ------------
Total (root+branch&cut) =   44.81 sec. (33476.40 ticks)
